networks/zoo_28_182/zoo_28_182-lower.txt
Number of groups: 14
Flow 1: {1 7 0} {7 2 0} {2 16 0} 
Flow 2: {7 3 0} {3 17 0} 
Flow 3: {7 4 0} {4 18 0} 
Flow 4: {8 5 0} {5 19 0} 
Flow 4: {7 8 0} Flow 5: {7 6 0} {6 20 0} 
Flow 6: {7 21 0} 
Flow 7: {8 22 0} 
Flow 8: {7 9 0} {9 23 0} 
Flow 9: {7 10 0} {10 24 0} 
Flow 10: {7 11 0} {11 25 0} 
Flow 11: {7 12 0} {12 26 0} 
Flow 12: {8 13 0} {13 27 0} 
Flow 13: {8 14 0} {14 28 0} 
Flow 14: {7 1 0} {1 15 0} 
Flow 14: {2 7 0} Flow 27: {3 7 0} Flow 40: {4 7 0} Flow 53: {5 8 0} {8 7 0} Flow 66: {6 7 0} Flow 105: {9 7 0} Flow 118: {10 7 0} Flow 131: {11 7 0} Flow 144: {12 7 0} Flow 157: {13 8 0} Flow 170: {14 8 0} Time taken running everything: 0 seconds
