networks/zoo_28_182/zoo_28_182-lower.sol
<?xml version = "1.0" encoding="UTF-8" standalone="yes"?>
<CPLEXSolution version="1.2">
 <header
   problemName="networks/zoo_28_182/zoo_28_182-lower.lp"
   solutionName="incumbent"
   solutionIndex="-1"
   objectiveValue="14"
   solutionTypeValue="3"
   solutionTypeString="primal"
   solutionStatusValue="101"
   solutionStatusString="integer optimal solution"
   solutionMethodString="mip"
   primalFeasible="1"
   dualFeasible="1"
   MIPNodes="0"
   MIPIterations="0"
   writeLevel="3"/>
 <quality
   epInt="1.0000000000000001e-05"
   epRHS="9.9999999999999995e-07"
   maxIntInfeas="0"
   maxPrimalInfeas="0"
   maxX="1"
   maxSlack="1"/>
 <variables>
  <variable name="Y(1,2)" index="1" value="1"/>
  <variable name="Y(2,3)" index="30" value="1"/>
  <variable name="Y(3,4)" index="59" value="1"/>
  <variable name="Y(4,5)" index="88" value="1"/>
  <variable name="Y(5,6)" index="117" value="1"/>
  <variable name="Y(6,7)" index="146" value="1"/>
  <variable name="Y(7,8)" index="175" value="1"/>
  <variable name="Y(8,9)" index="204" value="1"/>
  <variable name="Y(9,10)" index="233" value="1"/>
  <variable name="Y(10,11)" index="262" value="1"/>
  <variable name="Y(11,12)" index="291" value="1"/>
  <variable name="Y(12,13)" index="320" value="1"/>
  <variable name="Y(13,14)" index="349" value="1"/>
  <variable name="Y(14,1)" index="364" value="1"/>
  <variable name="X(1,7,1)" index="5096" value="1"/>
  <variable name="X(1,15,14)" index="5291" value="1"/>
  <variable name="X(2,7,14)" index="5473" value="1"/>
  <variable name="X(2,16,1)" index="5642" value="1"/>
  <variable name="X(3,7,27)" index="5850" value="1"/>
  <variable name="X(3,17,2)" index="6007" value="1"/>
  <variable name="X(4,7,40)" index="6227" value="1"/>
  <variable name="X(4,18,3)" index="6372" value="1"/>
  <variable name="X(5,8,53)" index="6604" value="1"/>
  <variable name="X(5,19,4)" index="6737" value="1"/>
  <variable name="X(6,7,66)" index="6981" value="1"/>
  <variable name="X(6,20,5)" index="7102" value="1"/>
  <variable name="X(7,1,14)" index="7293" value="1"/>
  <variable name="X(7,2,1)" index="7462" value="1"/>
  <variable name="X(7,3,2)" index="7645" value="1"/>
  <variable name="X(7,4,3)" index="7828" value="1"/>
  <variable name="X(7,6,5)" index="8012" value="1"/>
  <variable name="X(7,8,4)" index="8193" value="1"/>
  <variable name="X(7,9,8)" index="8379" value="1"/>
  <variable name="X(7,10,9)" index="8562" value="1"/>
  <variable name="X(7,11,10)" index="8745" value="1"/>
  <variable name="X(7,12,11)" index="8928" value="1"/>
  <variable name="X(7,21,6)" index="9105" value="1"/>
  <variable name="X(8,5,4)" index="9285" value="1"/>
  <variable name="X(8,7,53)" index="9516" value="1"/>
  <variable name="X(8,13,12)" index="9657" value="1"/>
  <variable name="X(8,14,13)" index="9840" value="1"/>
  <variable name="X(8,22,7)" index="10016" value="1"/>
  <variable name="X(9,7,105)" index="10296" value="1"/>
  <variable name="X(9,23,8)" index="10381" value="1"/>
  <variable name="X(10,7,118)" index="10673" value="1"/>
  <variable name="X(10,24,9)" index="10746" value="1"/>
  <variable name="X(11,7,131)" index="11050" value="1"/>
  <variable name="X(11,25,10)" index="11111" value="1"/>
  <variable name="X(12,7,144)" index="11427" value="1"/>
  <variable name="X(12,26,11)" index="11476" value="1"/>
  <variable name="X(13,8,157)" index="11804" value="1"/>
  <variable name="X(13,27,12)" index="11841" value="1"/>
  <variable name="X(14,8,170)" index="12181" value="1"/>
  <variable name="X(14,28,13)" index="12206" value="1"/>
 </variables>
</CPLEXSolution>
